8220
36, 49, 32, 1, 22, 31, 18, 19, 41, 8, 9, 10, 33, 51, 11, 52, 14, 13, 47, 26, 27, 28, 12, 25, 4, 43, 45, 3, 17, 21, 42, 7, 2, 30, 23, 20, 50, 29, 16, 46, 44, 34, 35, 39, 40, 38, 15, 6, 5, 24, 48, 37
